words_hard_train/5452.qaiger
aag 119 18 0 1 101
2
4
12
22
28
36
54
62
80
88
106
114
132
140
160
168
170
184
238
6 2 4
8 3 5
10 7 9
14 11 12
16 10 13
18 15 17
20 18 2
24 20 22
26 25 17
30 29 13
32 28 12
34 31 33
38 9 36
40 8 37
42 39 41
44 35 43
46 34 42
48 45 47
50 27 48
52 51 47
56 32 54
58 33 55
60 57 59
64 41 62
66 40 63
68 65 67
70 60 69
72 61 68
74 71 73
76 53 74
78 77 73
82 59 80
84 58 81
86 83 85
90 67 88
92 66 89
94 91 93
96 86 95
98 87 94
100 97 99
102 79 100
104 103 99
108 85 106
110 84 107
112 109 111
116 93 114
118 92 115
120 117 119
122 112 121
124 113 120
126 123 125
128 105 126
130 129 125
134 111 132
136 110 133
138 135 137
142 119 140
144 118 141
146 143 145
148 138 147
150 139 146
152 149 151
154 130 153
156 131 152
158 155 157
162 159 161
164 158 160
166 163 165
172 168 171
174 169 170
176 173 175
178 176 137
180 177 136
182 179 181
186 144 185
188 145 184
190 187 189
192 182 190
194 183 191
196 193 195
198 157 151
200 196 198
202 197 199
204 201 203
206 104 127
208 207 129
210 78 101
212 211 103
214 209 213
216 52 75
218 217 77
220 214 219
222 19 3
224 222 23
226 225 25
228 220 227
230 26 49
232 231 51
234 228 233
236 204 234
238 167 236
i0 2 y1[0]
i1 2 y1[1]
i2 1 x1[1]
i3 1 x1[0]
i4 1 x1[2]
i5 2 y1[2]
i6 1 x1[3]
i7 2 y1[3]
i8 1 x1[4]
i9 2 y1[4]
i10 1 x1[5]
i11 2 y1[5]
i12 1 x1[6]
i13 2 y1[6]
i14 1 x2[0]
i15 1 x1[7]
i16 2 y1[7]
i17 1 x2[1]
o0 bool[0]
c
simplified
  ==
    << 6
      1 x2
    subtract
      add
        1 x1
        250
      2 y1
