words_hard_train/5452.qaiger.qdimacs
p cnf 119 304
a 66 6 40 11 14 80 84 53 27 92 0
e 1 2 3 4 5 7 8 9 10 12 13 15 16 17 18 19 20 21 22 23 24 25 26 28 29 30 31 32 33 34 35 36 37 38 39 41 42 43 44 45 46 47 48 49 50 51 52 54 55 56 57 58 59 60 61 62 63 64 65 67 68 69 70 71 72 73 74 75 76 77 78 79 81 82 83 85 86 87 88 89 90 91 93 94 95 96 97 98 99 100 101 102 103 104 105 106 107 108 109 110 111 112 113 114 115 116 117 118 119 0
-1 -2 3 0
1 -3 0
2 -3 0
1 2 4 0
-1 -4 0
-2 -4 0
3 4 5 0
-3 -5 0
-4 -5 0
5 -6 7 0
-5 -7 0
6 -7 0
-5 6 8 0
5 -8 0
-6 -8 0
7 8 9 0
-7 -9 0
-8 -9 0
-9 -1 10 0
9 -10 0
1 -10 0
-10 -11 12 0
10 -12 0
11 -12 0
12 8 13 0
-12 -13 0
-8 -13 0
14 6 15 0
-14 -15 0
-6 -15 0
-14 -6 16 0
14 -16 0
6 -16 0
15 16 17 0
-15 -17 0
-16 -17 0
4 -18 19 0
-4 -19 0
18 -19 0
-4 18 20 0
4 -20 0
-18 -20 0
19 20 21 0
-19 -21 0
-20 -21 0
17 21 22 0
-17 -22 0
-21 -22 0
-17 -21 23 0
17 -23 0
21 -23 0
22 23 24 0
-22 -24 0
-23 -24 0
13 -24 25 0
-13 -25 0
24 -25 0
25 23 26 0
-25 -26 0
-23 -26 0
-16 -27 28 0
16 -28 0
27 -28 0
16 27 29 0
-16 -29 0
-27 -29 0
28 29 30 0
-28 -30 0
-29 -30 0
20 -31 32 0
-20 -32 0
31 -32 0
-20 31 33 0
20 -33 0
-31 -33 0
32 33 34 0
-32 -34 0
-33 -34 0
-30 34 35 0
30 -35 0
-34 -35 0
30 -34 36 0
-30 -36 0
34 -36 0
35 36 37 0
-35 -37 0
-36 -37 0
26 -37 38 0
-26 -38 0
37 -38 0
38 36 39 0
-38 -39 0
-36 -39 0
29 -40 41 0
-29 -41 0
40 -41 0
-29 40 42 0
29 -42 0
-40 -42 0
41 42 43 0
-41 -43 0
-42 -43 0
33 -44 45 0
-33 -45 0
44 -45 0
-33 44 46 0
33 -46 0
-44 -46 0
45 46 47 0
-45 -47 0
-46 -47 0
-43 47 48 0
43 -48 0
-47 -48 0
43 -47 49 0
-43 -49 0
47 -49 0
48 49 50 0
-48 -50 0
-49 -50 0
39 -50 51 0
-39 -51 0
50 -51 0
51 49 52 0
-51 -52 0
-49 -52 0
42 -53 54 0
-42 -54 0
53 -54 0
-42 53 55 0
42 -55 0
-53 -55 0
54 55 56 0
-54 -56 0
-55 -56 0
46 -57 58 0
-46 -58 0
57 -58 0
-46 57 59 0
46 -59 0
-57 -59 0
58 59 60 0
-58 -60 0
-59 -60 0
-56 60 61 0
56 -61 0
-60 -61 0
56 -60 62 0
-56 -62 0
60 -62 0
61 62 63 0
-61 -63 0
-62 -63 0
52 -63 64 0
-52 -64 0
63 -64 0
64 62 65 0
-64 -65 0
-62 -65 0
55 -66 67 0
-55 -67 0
66 -67 0
-55 66 68 0
55 -68 0
-66 -68 0
67 68 69 0
-67 -69 0
-68 -69 0
59 -70 71 0
-59 -71 0
70 -71 0
-59 70 72 0
59 -72 0
-70 -72 0
71 72 73 0
-71 -73 0
-72 -73 0
-69 73 74 0
69 -74 0
-73 -74 0
69 -73 75 0
-69 -75 0
73 -75 0
74 75 76 0
-74 -76 0
-75 -76 0
-65 76 77 0
65 -77 0
-76 -77 0
65 -76 78 0
-65 -78 0
76 -78 0
77 78 79 0
-77 -79 0
-78 -79 0
79 80 81 0
-79 -81 0
-80 -81 0
-79 -80 82 0
79 -82 0
80 -82 0
81 82 83 0
-81 -83 0
-82 -83 0
-84 85 86 0
84 -86 0
-85 -86 0
84 -85 87 0
-84 -87 0
85 -87 0
86 87 88 0
-86 -88 0
-87 -88 0
-88 68 89 0
88 -89 0
-68 -89 0
88 -68 90 0
-88 -90 0
68 -90 0
89 90 91 0
-89 -91 0
-90 -91 0
-72 92 93 0
72 -93 0
-92 -93 0
72 -92 94 0
-72 -94 0
92 -94 0
93 94 95 0
-93 -95 0
-94 -95 0
-91 -95 96 0
91 -96 0
95 -96 0
91 95 97 0
-91 -97 0
-95 -97 0
96 97 98 0
-96 -98 0
-97 -98 0
78 75 99 0
-78 -99 0
-75 -99 0
-98 -99 100 0
98 -100 0
99 -100 0
98 99 101 0
-98 -101 0
-99 -101 0
100 101 102 0
-100 -102 0
-101 -102 0
-52 63 103 0
52 -103 0
-63 -103 0
103 64 104 0
-103 -104 0
-64 -104 0
-39 50 105 0
39 -105 0
-50 -105 0
105 51 106 0
-105 -106 0
-51 -106 0
104 106 107 0
-104 -107 0
-106 -107 0
-26 37 108 0
26 -108 0
-37 -108 0
108 38 109 0
-108 -109 0
-38 -109 0
-107 109 110 0
107 -110 0
-109 -110 0
9 1 111 0
-9 -111 0
-1 -111 0
-111 11 112 0
111 -112 0
-11 -112 0
112 12 113 0
-112 -113 0
-12 -113 0
-110 113 114 0
110 -114 0
-113 -114 0
-13 24 115 0
13 -115 0
-24 -115 0
115 25 116 0
-115 -116 0
-25 -116 0
-114 116 117 0
114 -117 0
-116 -117 0
-102 -117 118 0
102 -118 0
117 -118 0
83 -118 119 0
-83 -119 0
118 -119 0
119 0
